src/7Step.param
language ESSENCE' 1.0

letting input=[1,2,3,4]
letting output=[1,2,3,4]
letting MAX_OPS=8
letting num_registers=2