src/7Step.param.solution
language ESSENCE' 1.0
$ Minion SolverNodes: 8
$ Minion SolverTotalTime: 0.052384
$ Minion SolverTimeOut: 0
$ Savile Row TotalTime: 0.238
letting actionFrom be [2, 2, 2, 2, 2, 2, 2]
letting actionTo be [3, 3, 3, 3, 3, 3, 3]
letting arg be [-1, -1, -1, -1, -1, -1, -1]
letting pointers be [[1, 1, 1, 1, 1, 1, 1, 1;int(0..7)], 
[1, 1, 1, 1, 1, 1, 1, 1;int(0..7)];int(0..1)]
letting statePlaces be [[0, 0, 0, 0, 0, 0, 0], 
[2, 2, 2, 2, 2, 2, 2], 
[0, 0, 0, 0, 0, 0, 0]]
